% Data file generated from RandomInstances/14_0.80_2.col DIMACS file
size = 14;

chi = 7;

adjacency = [|0,1,1,1,1,1,1,1,0,1,1,0,1,1,
|1,0,1,1,1,1,0,0,1,1,1,1,1,1,
|1,1,0,0,1,1,0,1,0,1,1,0,1,1,
|1,1,0,0,0,1,0,1,1,0,1,1,1,1,
|1,1,1,0,0,1,1,1,1,1,1,1,1,0,
|1,1,1,1,1,0,1,1,1,0,1,1,1,1,
|1,0,0,0,1,1,0,1,1,1,1,1,0,0,
|1,0,1,1,1,1,1,0,0,1,1,1,1,1,
|0,1,0,1,1,1,1,0,0,1,1,1,1,1,
|1,1,1,0,1,0,1,1,1,0,1,1,0,1,
|1,1,1,1,1,1,1,1,1,1,0,1,1,1,
|0,1,0,1,1,1,1,1,1,1,1,0,1,1,
|1,1,1,1,1,1,0,1,1,0,1,1,0,0,
|1,1,1,1,0,1,0,1,1,1,1,1,0,0,
|];